\ Model x1_copy
\ LP format - for model browsing. Use MPS format to capture full model detail.
Minimize
 
Subject To
 c_u_x43_: x44 + x45 + x46 + x47 + x48 + x49 + x50 + x51 + x52 + x53 + x54
   + x55 + x56 + x57 + x58 + x59 + x60 + x61 + x62 <= 1
 c_u_x177_: 28.18124367617154 x140 <= 159
 c_u_x178_: 3.389805625534211 x66 + 162.8289067837037 x142 <= 2138
 c_u_x179_: 3.21969801315036 x68 + 466.4851784213187 x144 <= 1934
 c_u_x181_: 62.14643751613457 x148 <= 965
 c_u_x183_: 61.80794088054149 x152 <= 333
 c_u_x191_: 322.7535573383785 x166 <= 1346
 c_u_x195_: 77.05585273543031 x172 <= 1290
 c_e_x139_: [ x44 * x140 ] = 1
 c_e_x141_: [ x45 * x142 ] = 1
 c_e_x143_: [ x46 * x144 ] = 1
 c_e_x147_: [ x48 * x148 ] = 1
 c_e_x151_: [ x50 * x152 ] = 1
 c_e_x165_: [ x57 * x166 ] = 1
 c_e_x171_: [ x60 * x172 ] = 1
Bounds
 x44 free
 x45 free
 x46 free
 x47 >= 0.0001
 x48 free
 x49 >= 0.0001
 x50 >= 0.0001
 x51 >= 0.0001
 x52 >= 0.0001
 x53 >= 0.0001
 x54 >= 0.0001
 x55 >= 0.0001
 x56 >= 0.0001
 x57 free
 x58 >= 0.0001
 x59 >= 0.0001
 x60 >= 0.0001
 x61 >= 0.0001
 x62 >= 0.0001
 x66 >= 6.666666666666667
 x68 >= 6.666666666666667
 x140 >= 1
 x142 >= 1
 x144 >= 1
 x148 >= 1
 x152 free
 x166 >= 1
 x172 free
End
